NAME : C206.3598.tour
COMMENT : Cost = 0_3598
COMMENT : Found by LKH [Keld Helsgaun] Sat Apr 22 13:38:55 2017
TYPE : TOUR
DIMENSION : 53
TOUR_SECTION
1
21
23
25
28
31
30
7
33
34
32
36
38
39
40
37
35
29
27
24
19
20
17
15
13
16
18
14
26
10
12
11
9
22
53
6
3
2
8
4
5
52
50
41
45
47
46
51
48
43
42
44
49
-1
EOF
